N = 6;
H = 6;
T = 2;

avail = array3d(1..N, 1..H, 1..T, [0, 7, 3, 1, 6, 1, 5, 2, 0, 4, 1, 3, 1, 4, 10, 4, 7, 8, 7, 10, 3, 4, 6, 4, 10, 5, 7, 8, 0, 4, 9, 0, 7, 6, 0, 2, 8, 10, 7, 0, 5, 9, 4, 5, 4, 8, 8, 7, 7, 0, 0, 2, 7, 10, 8, 5, 1, 2, 1, 7, 3, 4, 4, 3, 4, 8, 5, 1, 10, 10, 3, 10]);

r = array2d(1..H, 1..T, [1, 2, 1, 2, 2, 1, 2, 0, 2, 2, 0, 2]);
